StudentsNr = 10;
InstructorsNr = 48;
DaysNr = 1;
SlotsPerDay = 20;
AvailabilitySlotsLenght = 20;
RoomNr = 1;
ProgrammNr = 2;
DegreeNr = 2;
RolesNr = 0;
CoursesNr = 0;
InstructorsProgramm = [{1}, {1}, {1}, {1}, {1}, {1, 2}, {2}, {2}, {1}, {1}, {1, 2}, {1}, {1}, {1}, {2}, {1}, {1, 2}, {2}, {2}, {1}, {2}, {1}, {1}, {2}, {2}, {1, 2}, {2}, {2}, {1}, {2}, {2}, {2}, {1, 2}, {1, 2}, {2}, {1}, {1}, {1}, {1, 2}, {2}, {2}, {1}, {1, 2}, {1}, {2}, {2}, {2}, {2}];
InstructorRolesPerProgramm = array2d(1..ProgrammNr,{},[]);
InstructorsAvailability = [|1, |1, |0, |1, |1, |0, |0, |0, |1, |1, |1, |0, |0, |0, |0, |0, |1, |0, |0, |0, |1, |0, |1, |1, |0, |0, |0, |0, |1, |1, |1, |1, |1, |0, |1, |1, |0, |1, |0, |1, |1, |0, |1, |1, |1, |1, |0, |0|];
StudentsProgramm = [2, 2, 2, 1, 2, 2, 2, 2, 2, 2];
StudentsDegree = [2, 2, 2, 1, 1, 1, 2, 2, 2, 1];
StudentsSupervisorId = [35, 41, 15, 44, 45, 48, 43, 27, 27, 24];
StudentsCourseIds = [{}, {}, {}, {}, {}, {}, {}, {}, {}, {}];
StudentsAvailability = [|1, |0, |0, |0, |0, |1, |0, |1, |1, |0|];
TheoryticalMinCard = [1, 1, 1, 1, 1, 1, 1, 1, 1, 1];
CoursesInstructorIds = [];
RolesDemands = [];
RolesContinuity = [];
ExamLen = [1, 1, 1, 2, 2, 2, 1, 1, 1, 2];
LunchTsMinLen = 1;
LunchStarts = [6..13];
SupervisorAvailable = 0;
OptimalLunchLenght = [1, 1];
OptimalStartTs = [1, 0];
OptimalFinishTs = [2, 20];
MinimizeRooms = 300;
RolesSoftContinuity = array2d(1..2,{},[]);
SameDegreeInRoom = 10;
Mergeability = 2;
